
  32   50
  15    6   12    7   12   10   11   11   19   10   15   12    6   10    5   10   17   17   16    7    9   18   10   15   14    7    7   23   11    9    5   10    0    0    0    0    0    0    0    0    0    0    0    0    0    0    0    0    0    0

   0   0   0   0   0   0   0   0   0   0   0   0   0   0   0   0   0   0   0   0   0   0   0   0   0   0   0   0   0   0   0   0   0   0   0   0   0   0   0   0   0   0   0   0   0   0   0   0   0   0   0   9 2 3 4 6 7 8 9 16 17 
   1   0   0   0   0   0   0   0   5   0   0   9   0   0   0   0   0   0   0   7   0   0   0   0   0  10   0   0  10   0   3   0   0   0   0   0   0   0   0   0   0   0   0   0   0   0   0   0   0   0   0   5 31 30 27 14 5 
   4   0   0   0   0   0   0   0   0  10   0  10   0   0   0   5   0   0   0   0   0   8   3   0   7   0   0   0   0   0   0   0   0   0   0   0   0   0   0   0   0   0   0   0   0   0   0   0   0   0   0   9 30 28 27 25 21 19 18 15 14 
   8   0   0   0   0   0   0   0   0   0   0   0   0   0   0   0   0   0   0   0   0   0   0   0   0   0   0   0   0   0   0   0   0   0   0   0   0   0   0   0   0   0   0   0   0   0   0   0   0   0   0   7 30 28 27 21 18 14 11 
   4   0   0   0   0   0   0   0   0   0   0   0   0   0   0   0   0   0  10   0   0   0   0   0   0   0   0   0   0   0   0   0   0   0   0   0   0   0   0   0   0   0   0   0   0   0   0   0   0   0   0   5 28 20 18 13 11 
   5   0   0   0   0   0  10   0   0   0   0   0   0   0   0   0   4   0   0   0   0   0   0   0   0   0   7   0   4   2   0   0   0   0   0   0   0   0   0   0   0   0   0   0   0   0   0   0   0   0   0   4 27 19 18 10 
   8   0   0   0   3   0   0   0   0   0   0   0   0   0   0   0   0   0   0   0   0   0   0   0   4   7   0   0   0   0   1   0   0   0   0   0   0   0   0   0   0   0   0   0   0   0   0   0   0   0   0   4 28 27 20 10 
   9   0   0   0   0   0   0   0   0   6   0   0   0   6   0   0   0   0   0   8   0   0   8   0   0   0   0   0   0   0   0   0   0   0   0   0   0   0   0   0   0   0   0   0   0   0   0   0   0   0   0   4 28 27 19 12 
   7   0   0   5   0   0   0   4   0   0  10   0   0   0   1   0   0   0   0   0   0   0   6   6   0   0   0   5   0   0   7   0   0   0   0   0   0   0   0   0   0   0   0   0   0   0   0   0   0   0   0   5 31 25 23 21 15 
   6   0   0   0   0   0   0   0   0   0   0   0   0   0   0   0   0   0   3   9   0   0   0   0   0   0   0   0   0   0   0   0   0   0   0   0   0   0   0   0   0   0   0   0   0   0   0   0   0   0   0   4 26 25 22 13 
   9   0   0   0   0   0   3   0   0   0   0   0   9   0   0   0   0   0   3   0   6   0   0   0   0   0   0   0   0   0   0   0   3   0   0   0   0   0   0   0   0   0   0   0   0   0   0   0   0   0   0   5 29 26 25 24 22 
   4   0   0   0   0   0   0   0   0   0   2   5   0   5   0   0   0   0   0   0   0   0   0   0   0   8   0   0   8   4   0   0   0   0   0   0   0   0   0   0   0   0   0   0   0   0   0   0   0   0   0   4 25 24 23 21 
   7   0   0   0   0  10   0   4   0   0   0   0   0   0   0   0   0   0   3  10   0   0   9   0   0   0   0   0   0   0   0   0   0   0   0   0   0   0   0   0   0   0   0   0   0   0   0   0   0   0   0   3 24 23 21 
   4   0   0   0   0   0   0   0   0   0   0  10   6   0   0   0   0   0   7   0   0   0   0   0   0   0   0   0   5   3   0   0   0   0   0   0   0   0   0   0   0   0   0   0   0   0   0   0   0   0   0   3 29 23 22 
   8   0   0   0   0   0   0   0   0   0   0   0   0   0   0   0   0   3   0   0   0   0   1   0   0   0   0   0   0   0   0   5   0   0   0   0   0   0   0   0   0   0   0   0   0   0   0   0   0   0   0   3 26 24 22 
   8   0   0   0   0   0   0   9   8   0   0   0   0   0   0   0   0   0   0   5   0   0   0   0   0   0   0   0   0   0   0   0   0   0   0   0   0   0   0   0   0   0   0   0   0   0   0   0   0   0   0   3 27 26 21 
  10  10   0   0   0   0   0   0   0   0   0   0   0   0   0   0   0   1   0   0   0   0   0   0   0   0   0   0   0   0   0   0   0   0   0   0   0   0   0   0   0   0   0   0   0   0   0   0   0   0   0   3 24 23 21 
   7   9   0   0   0   0   0   0   0   0   0   0   0   0  10   0   0  10   0   0   0   0   0   0   0   0   0   0   0   0   0   0   0   0   0   0   0   0   0   0   0   0   0   0   0   0   0   0   0   0   0   2 23 22 
   6   0   0  10   0   0   0   0   0   0   0   0   0   0   0   0   0   7   6   8   0   0   0  10   8   8   0   0   0   0   0   0   0   0   0   0   0   0   0   0   0   0   0   0   0   0   0   0   0   0   0   1 22 
   8   0   0   0   0   0   0   0   0   9   0   3   0   0   0   0   0   0   0   0   0   0   0   0   0   0   0   4   0   0   0   0   9   0   0   0   0   0   0   0   0   0   0   0   0   0   0   0   0   0   0   1 21 
   6   0   0   0   0   0   0   0   0   0   4   0   0   0   0   0   0   6   1   0   0   0   0   0   0   1   0   0   0   0   0   0   0   0   0   0   0   0   0   0   0   0   0   0   0   0   0   0   0   0   0   1 32
   6   0   0   0   0   0   0   0   0   0   0   0   0   0   0   0   0   0   0   0   7   9   9   0   0   2   0   0   0   0   0   0   0   0   0   0   0   0   0   0   0   0   0   0   0   0   0   0   0   0   0   1 32
   1   0   0   2   0   0   0   0   0   0   1   0   0   0   0   0   0   0   0   2   0   0   0   2   0   0   0   0   0   0   0   0   0   0   0   0   0   0   0   0   0   0   0   0   0   0   0   0   0   0   0   1 32
   7  10   0   0   0   9  10   0   7   0   0   0   0   0   0   0   0   6   0   0   0   0   0   0   0   0   0   0   0   4   0   0   3   0   0   0   0   0   0   0   0   0   0   0   0   0   0   0   0   0   0   1 32
   9   0   0   0   0   4   0   0   0   0   0   0   0   0   0   0   0   0  10   0   0   0   0   0   0   0   0   7   0   2   0   0   1   0   0   0   0   0   0   0   0   0   0   0   0   0   0   0   0   0   0   1 32
   3   0   0   6   0   0   1   0   0   0   0   0   0   0   0   0  10   0   8   0   0   0   0   0   0   0   0   0  10   0   0   0   0   0   0   0   0   0   0   0   0   0   0   0   0   0   0   0   0   0   0   1 32
   1   0   0   0   0   0   2   0   8   0   0   0   0   0   0   0   0   0   0   0   0   0   0   0   0   0   0   0   0   0   0   0   0   0   0   0   0   0   0   0   0   0   0   0   0   0   0   0   0   0   0   1 32
   1   0   0   0   0   0   0  10   0   0   0   0   0   0   0   0   0   0   0   0   0   4   0   0   0   0   0   0  10   0   0   0   0   0   0   0   0   0   0   0   0   0   0   0   0   0   0   0   0   0   0   1 32
   2   0   0   0   7   0   8   0   0   0   0   0   0   0   0   0   0   0   0   0   0   0   5   0   0   0   0   0   0   0   0   0   0   0   0   0   0   0   0   0   0   0   0   0   0   0   0   0   0   0   0   1 32
   5   0   6   0   0   0   0   0   0  10   0   0   0   0   0   0   0   0   0   0   0   0   0   0  10   0   0   0   8   0   0   0   0   0   0   0   0   0   0   0   0   0   0   0   0   0   0   0   0   0   0   1 32
   6   0   0   4   0   0   0   0   0   0   0   0   0   0   0   0   0   0   0   0   0   0   0   0   0   0   0   0   0   7   0   0   0   0   0   0   0   0   0   0   0   0   0   0   0   0   0   0   0   0   0   1 32
   0   0   0   0   0   0   0   0   0   0   0   0   0   0   0   0   0   0   0   0   0   0   0   0   0   0   0   0   0   0   0   0   0   0   0   0   0   0   0   0   0   0   0   0   0   0   0   0   0   0   0   0 
